
Gurobi 6.5.2 (win64) logging started 07/23/16 03:13:23


Gurobi 6.5.2 (win64) logging started 07/23/16 03:13:23

Optimize a model with 20466 rows, 1358 columns and 44721 nonzeros
Coefficient statistics:
  Matrix range    [4e-06, 1e+03]
  Objective range [1e+00, 1e+00]
  Bounds range    [1e+00, 1e+00]
  RHS range       [1e+00, 1e+03]
Found heuristic solution: objective 1151.42
Presolve removed 20443 rows and 1334 columns
Presolve time: 0.01s
Presolved: 23 rows, 24 columns, 72 nonzeros
Found heuristic solution: objective 234.7424516
Variable types: 24 continuous, 0 integer (0 binary)

Root relaxation: objective 1.969316e+02, 17 iterations, 0.00 seconds

    Nodes    |    Current Node    |     Objective Bounds      |     Work
 Expl Unexpl |  Obj  Depth IntInf | Incumbent    BestBd   Gap | It/Node Time

*    0     0               0     196.9315850  196.93158  0.00%     -    0s

Explored 0 nodes (17 simplex iterations) in 0.02 seconds
Thread count was 8 (of 8 available processors)

Optimal solution found (tolerance 1.00e-04)
Best objective 1.969315849775e+02, best bound 1.969315849775e+02, gap 0.0%

Wrote requested result file 'H2\instance22\\Results22EC_Sol2.lp'

